p wcnf 136 402 5
1 -133 0
1 -134 0
1 -135 0
1 -136 0
5 1 2 0
5 -1 -2 0
5 3 4 0
5 -3 -4 0
5 5 6 0
5 -5 -6 0
5 7 8 0
5 -7 -8 0
5 9 10 0
5 -9 -10 0
5 11 12 0
5 -11 -12 0
5 13 14 0
5 -13 -14 0
5 -1 15 -22 0
5 -1 -15 22 0
5 -3 16 -23 0
5 -3 -16 23 0
5 -5 17 -24 0
5 -5 -17 24 0
5 -7 18 -25 0
5 -7 -18 25 0
5 -9 19 -26 0
5 -9 -19 26 0
5 -11 20 -27 0
5 -11 -20 27 0
5 -13 21 -28 0
5 -13 -21 28 0
5 -1 22 -29 0
5 -3 23 -30 0
5 -5 24 -31 0
5 -7 25 -32 0
5 -9 26 -33 0
5 -11 27 -34 0
5 -13 28 -35 0
5 -1 29 -36 0
5 -1 -29 36 0
5 -3 30 -37 0
5 -3 -30 37 0
5 -5 31 -38 0
5 -5 -31 38 0
5 -7 32 -39 0
5 -7 -32 39 0
5 -9 33 -40 0
5 -9 -33 40 0
5 -11 34 -41 0
5 -11 -34 41 0
5 -13 35 -42 0
5 -13 -35 42 0
5 -1 36 -43 0
5 -3 37 -44 0
5 -5 38 -45 0
5 -7 39 -46 0
5 -9 40 -47 0
5 -11 41 -48 0
5 -13 42 -49 0
5 -1 43 -50 0
5 -1 -43 50 0
5 -3 44 -51 0
5 -3 -44 51 0
5 -5 45 -52 0
5 -5 -45 52 0
5 -7 46 -53 0
5 -7 -46 53 0
5 -9 47 -54 0
5 -9 -47 54 0
5 -11 48 -55 0
5 -11 -48 55 0
5 -13 49 -56 0
5 -13 -49 56 0
5 -2 15 -22 0
5 -4 16 -23 0
5 -6 17 -24 0
5 -8 18 -25 0
5 -10 19 -26 0
5 -12 20 -27 0
5 -14 21 -28 0
5 -2 22 -43 0
5 -4 23 -44 0
5 -6 24 -45 0
5 -8 25 -46 0
5 -10 26 -47 0
5 -12 27 -48 0
5 -14 28 -49 0
5 -2 43 -50 0
5 -4 44 -51 0
5 -6 45 -52 0
5 -8 46 -53 0
5 -10 47 -54 0
5 -12 48 -55 0
5 -14 49 -56 0
5 -2 50 -29 0
5 -4 51 -30 0
5 -6 52 -31 0
5 -8 53 -32 0
5 -10 54 -33 0
5 -12 55 -34 0
5 -14 56 -35 0
5 -2 29 -36 0
5 -4 30 -37 0
5 -6 31 -38 0
5 -8 32 -39 0
5 -10 33 -40 0
5 -12 34 -41 0
5 -14 35 -42 0
5 -57 18 16 15 0
5 -65 25 23 22 0
5 -73 32 30 29 0
5 -81 39 37 36 0
5 -89 46 44 43 0
5 -97 53 51 50 0
5 -58 16 15 0
5 -58 -18 0
5 -66 23 22 0
5 -66 -25 0
5 -74 30 29 0
5 -74 -32 0
5 -82 37 36 0
5 -82 -39 0
5 -90 44 43 0
5 -90 -46 0
5 -98 51 50 0
5 -98 -53 0
5 -59 19 15 0
5 -59 -16 0
5 -67 26 22 0
5 -67 -23 0
5 -75 33 29 0
5 -75 -30 0
5 -83 40 36 0
5 -83 -37 0
5 -91 47 43 0
5 -91 -44 0
5 -99 54 50 0
5 -99 -51 0
5 -60 15 0
5 -60 -19 -16 0
5 -68 22 0
5 -68 -26 -23 0
5 -76 29 0
5 -76 -33 -30 0
5 -84 36 0
5 -84 -40 -37 0
5 -92 43 0
5 -92 -47 -44 0
5 -100 50 0
5 -100 -54 -51 0
5 -61 20 17 0
5 -61 -15 0
5 -69 27 24 0
5 -69 -22 0
5 -77 34 31 0
5 -77 -29 0
5 -85 41 38 0
5 -85 -36 0
5 -93 48 45 0
5 -93 -43 0
5 -101 55 52 0
5 -101 -50 0
5 -62 17 0
5 -62 -20 -15 0
5 -70 24 0
5 -70 -27 -22 0
5 -78 31 0
5 -78 -34 -29 0
5 -86 38 0
5 -86 -41 -36 0
5 -94 45 0
5 -94 -48 -43 0
5 -102 52 0
5 -102 -55 -50 0
5 -63 21 0
5 -63 -17 -15 0
5 -71 28 0
5 -71 -24 -22 0
5 -79 35 0
5 -79 -31 -29 0
5 -87 42 0
5 -87 -38 -36 0
5 -95 49 0
5 -95 -45 -43 0
5 -103 56 0
5 -103 -52 -50 0
5 -64 -21 -17 -15 0
5 -72 -28 -24 -22 0
5 -80 -35 -31 -29 0
5 -88 -42 -38 -36 0
5 -96 -49 -45 -43 0
5 -104 -56 -52 -50 0
5 57 -18 -16 -15 0
5 58 -16 -15 18 0
5 59 -19 -15 16 0
5 60 -15 19 16 0
5 61 -20 -17 15 0
5 62 -17 20 15 0
5 63 -21 17 15 0
5 64 21 17 15 0
5 65 -25 -23 -22 0
5 66 -23 -22 25 0
5 67 -26 -22 23 0
5 68 -22 26 23 0
5 69 -27 -24 22 0
5 70 -24 27 22 0
5 71 -28 24 22 0
5 72 28 24 22 0
5 73 -32 -30 -29 0
5 74 -30 -29 32 0
5 75 -33 -29 30 0
5 76 -29 33 30 0
5 77 -34 -31 29 0
5 78 -31 34 29 0
5 79 -35 31 29 0
5 80 35 31 29 0
5 81 -39 -37 -36 0
5 82 -37 -36 39 0
5 83 -40 -36 37 0
5 84 -36 40 37 0
5 85 -41 -38 36 0
5 86 -38 41 36 0
5 87 -42 38 36 0
5 88 42 38 36 0
5 89 -46 -44 -43 0
5 90 -44 -43 46 0
5 91 -47 -43 44 0
5 92 -43 47 44 0
5 93 -48 -45 43 0
5 94 -45 48 43 0
5 95 -49 45 43 0
5 96 49 45 43 0
5 97 -53 -51 -50 0
5 98 -51 -50 53 0
5 99 -54 -50 51 0
5 100 -50 54 51 0
5 101 -55 -52 50 0
5 102 -52 55 50 0
5 103 -56 52 50 0
5 104 56 52 50 0
5 -1 15 0
5 -1 -50 0
5 -2 15 0
5 -2 -36 0
5 -3 16 0
5 -3 -51 0
5 -4 16 0
5 -4 -37 0
5 -5 17 0
5 -5 -52 0
5 -6 17 0
5 -6 -38 0
5 -7 18 0
5 -7 -53 0
5 -8 18 0
5 -8 -39 0
5 -9 19 0
5 -9 -54 0
5 -10 19 0
5 -10 -40 0
5 -11 20 0
5 -11 -55 0
5 -12 20 0
5 -12 -41 0
5 -13 21 0
5 -13 -56 0
5 -14 21 0
5 -14 -42 0
5 -57 -105 121 0
5 -65 -105 123 0
5 -73 -105 125 0
5 -81 -105 127 0
5 -89 -105 129 0
5 -97 -105 131 0
5 -58 -107 121 0
5 -66 -107 123 0
5 -74 -107 125 0
5 -82 -107 127 0
5 -90 -107 129 0
5 -98 -107 131 0
5 -59 -109 121 0
5 -67 -109 123 0
5 -75 -109 125 0
5 -83 -109 127 0
5 -91 -109 129 0
5 -99 -109 131 0
5 -60 -111 121 0
5 -68 -111 123 0
5 -76 -111 125 0
5 -84 -111 127 0
5 -92 -111 129 0
5 -100 -111 131 0
5 -61 -113 121 0
5 -69 -113 123 0
5 -77 -113 125 0
5 -85 -113 127 0
5 -93 -113 129 0
5 -101 -113 131 0
5 -62 -115 121 0
5 -70 -115 123 0
5 -78 -115 125 0
5 -86 -115 127 0
5 -94 -115 129 0
5 -102 -115 131 0
5 -63 -117 121 0
5 -71 -117 123 0
5 -79 -117 125 0
5 -87 -117 127 0
5 -95 -117 129 0
5 -103 -117 131 0
5 -64 -119 121 0
5 -72 -119 123 0
5 -80 -119 125 0
5 -88 -119 127 0
5 -96 -119 129 0
5 -104 -119 131 0
5 -57 105 -121 0
5 -65 105 -123 0
5 -73 105 -125 0
5 -81 105 -127 0
5 -89 105 -129 0
5 -97 105 -131 0
5 -58 107 -121 0
5 -66 107 -123 0
5 -74 107 -125 0
5 -82 107 -127 0
5 -90 107 -129 0
5 -98 107 -131 0
5 -59 109 -121 0
5 -67 109 -123 0
5 -75 109 -125 0
5 -83 109 -127 0
5 -91 109 -129 0
5 -99 109 -131 0
5 -60 111 -121 0
5 -68 111 -123 0
5 -76 111 -125 0
5 -84 111 -127 0
5 -92 111 -129 0
5 -100 111 -131 0
5 -61 113 -121 0
5 -69 113 -123 0
5 -77 113 -125 0
5 -85 113 -127 0
5 -93 113 -129 0
5 -101 113 -131 0
5 -62 115 -121 0
5 -70 115 -123 0
5 -78 115 -125 0
5 -86 115 -127 0
5 -94 115 -129 0
5 -102 115 -131 0
5 -63 117 -121 0
5 -71 117 -123 0
5 -79 117 -125 0
5 -87 117 -127 0
5 -95 117 -129 0
5 -103 117 -131 0
5 -64 119 -121 0
5 -72 119 -123 0
5 -80 119 -125 0
5 -88 119 -127 0
5 -96 119 -129 0
5 -104 119 -131 0
5 121 0
5 121 123 125 127 129 131 0
5 125 127 0
5 -125 -127 0
5 133 121 123 0
5 133 125 127 0
5 133 129 131 0
5 134 123 125 0
5 134 125 131 0
5 134 125 129 0
5 134 127 131 0
5 134 121 125 0
5 134 123 127 0
5 134 127 129 0
5 135 121 127 0
5 136 123 129 0
5 136 121 129 0
5 136 123 131 0
5 136 121 131 0
5 133 -121 -123 0
5 133 -125 -127 0
5 133 -129 -131 0
5 134 -123 -125 0
5 134 -125 -131 0
5 134 -125 -129 0
5 134 -127 -131 0
5 134 -121 -125 0
5 134 -123 -127 0
5 134 -127 -129 0
5 135 -121 -127 0
5 136 -123 -129 0
5 136 -121 -129 0
5 136 -123 -131 0
5 136 -121 -131 0
5 -134 133 0
5 -135 134 0
5 -136 135 0
